#######################



#######################
Set parameter TimeLimit to value 500
Set parameter SoftMemLimit to value 125
Set parameter MIPFocus to value 2
Set parameter LogFile to value 1003-MIPFocus2-Presolve2-TimeLimit500-k16x240-8.log
Set parameter Presolve to value 2
Set parameter Seed to value 18
Using license file /opt/gurobi/gurobi.lic

Gurobi Optimizer version 10.0.3 build v10.0.3rc0 (linux64)
Copyright (c) 2023, Gurobi Optimization, LLC

Read MPS format model from file /miplib2010/k16x240.mps.bz2
Reading time = 0.00 seconds
k16x240: 256 rows, 480 columns, 960 nonzeros

CPU model: Intel(R) Xeon(R) E-2388G CPU @ 3.20GHz, instruction set [SSE2|AVX|AVX2|AVX512]
Thread count: 8 physical cores, 16 logical processors, using up to 16 threads

Optimize a model with 256 rows, 480 columns and 960 nonzeros
Model fingerprint: 0x4e80885f
Variable types: 240 continuous, 240 integer (240 binary)
Coefficient statistics:
  Matrix range     [1e+00, 1e+03]
  Objective range  [1e+00, 1e+03]
  Bounds range     [1e+00, 1e+03]
  RHS range        [4e+00, 4e+02]
Found heuristic solution: objective 19474.000000
Presolve time: 0.00s
Presolved: 256 rows, 480 columns, 960 nonzeros
Variable types: 240 continuous, 240 integer (240 binary)
Root relaxation presolve removed 241 rows and 240 columns
Root relaxation presolved: 15 rows, 240 columns, 450 nonzeros


Root relaxation: objective 2.769838e+03, 16 iterations, 0.00 seconds (0.00 work units)

    Nodes    |    Current Node    |     Objective Bounds      |     Work
 Expl Unexpl |  Obj  Depth IntInf | Incumbent    BestBd   Gap | It/Node Time

     0     0 2769.83800    0   14 19474.0000 2769.83800  85.8%     -    0s
H    0     0                    11359.000000 2769.83800  75.6%     -    0s
H    0     0                    11317.000000 8116.87580  28.3%     -    0s
H    0     0                    11261.000000 8116.87580  27.9%     -    0s
H    0     0                    11240.000000 8116.87580  27.8%     -    0s
H    0     0                    10981.000000 8116.87580  26.1%     -    0s
     0     0 8116.87580    0   26 10981.0000 8116.87580  26.1%     -    0s
H    0     0                    10835.000000 8116.87580  25.1%     -    0s
     0     0 8588.30479    0   25 10835.0000 8588.30479  20.7%     -    0s
     0     0 8613.92228    0   22 10835.0000 8613.92228  20.5%     -    0s
H    0     0                    10779.000000 8613.92228  20.1%     -    0s
     0     0 8709.92265    0   22 10779.0000 8709.92265  19.2%     -    0s
H    0     0                    10678.000000 8709.92265  18.4%     -    0s
     0     0 8840.92177    0   36 10678.0000 8840.92177  17.2%     -    0s
     0     0 8841.26865    0   27 10678.0000 8841.26865  17.2%     -    0s
     0     0 8950.83470    0   37 10678.0000 8950.83470  16.2%     -    0s
     0     0 8995.13071    0   37 10678.0000 8995.13071  15.8%     -    0s
     0     0 9006.46560    0   39 10678.0000 9006.46560  15.7%     -    0s
     0     0 9008.87766    0   41 10678.0000 9008.87766  15.6%     -    0s
     0     0 9078.87809    0   39 10678.0000 9078.87809  15.0%     -    0s
     0     0 9078.87809    0   39 10678.0000 9078.87809  15.0%     -    0s
     0     2 9078.87809    0   39 10678.0000 9078.87809  15.0%     -    0s
H  876   649                    10674.000000 9377.03257  12.2%  16.1    0s
 26422 10750     cutoff   36      10674.0000 10001.4422  6.30%  29.3    5s
 66544 19053     cutoff   39      10674.0000 10179.3886  4.63%  29.6   10s
 107347 20235 10429.5081   33   31 10674.0000 10310.0026  3.41%  29.9   15s
 142176 14711     cutoff   63      10674.0000 10423.1338  2.35%  29.8   20s

Cutting planes:
  Gomory: 1
  Lift-and-project: 12
  Cover: 96
  Implied bound: 21
  MIR: 175
  Flow cover: 310
  Flow path: 45
  Inf proof: 2
  Zero half: 12
  Network: 45
  Relax-and-lift: 4

Explored 173081 nodes (4930613 simplex iterations) in 23.83 seconds (37.44 work units)
Thread count was 16 (of 16 available processors)

Solution count 10: 10674 10678 10779 ... 19474

Optimal solution found (tolerance 1.00e-04)
Best objective 1.067400000000e+04, best bound 1.067400000000e+04, gap 0.0000%
